c Result of efficient AIG-to-CNF conversion using package CNF
p cnf 842 2363
2 3 6 -9 0
-2 -3 0
-2 9 0
-2 -6 0
-3 637 4 5 0
3 -5 0
3 -4 0
3 -637 0
-4 634 635 636 0
4 -634 0
4 -636 0
4 -635 0
-5 638 639 640 641 0
5 -641 0
5 -640 0
5 -638 0
5 -639 0
6 -632 -633 -7 0
-6 632 0
-6 633 0
-6 7 0
-7 630 631 8 0
-7 629 630 631 0
7 -631 0
7 -630 0
7 -629 -8 0
-8 626 627 628 0
8 -626 0
8 -628 0
8 -627 0
-9 4 10 375 6 0
-9 4 -10 -375 6 0
9 -6 0
9 10 -375 0
9 -4 0
9 -10 375 0
-10 11 46 69 185 0
10 -185 0
10 -11 0
10 -69 0
10 -46 0
-11 12 36 37 0
-11 12 32 37 0
11 -37 0
11 -12 0
11 -32 -36 0
-12 829 20 0
-12 13 20 0
-12 -626 20 0
12 -20 0
12 626 -829 -13 0
13 627 -14 0
-13 -627 0
-13 14 0
14 -628 -15 0
-14 628 0
-14 15 0
15 -629 16 0
-15 629 0
-15 -16 0
-16 630 17 0
16 -630 0
16 -17 0
-17 631 18 0
17 -631 0
17 -18 0
-18 632 19 0
18 -632 0
18 -19 0
-19 633 3 0
19 -633 0
19 -3 0
-20 836 24 0
-20 626 24 0
-20 21 24 0
20 -24 0
20 -626 -836 -21 0
21 627 -22 0
-21 -627 0
-21 22 0
22 -628 23 0
-22 628 0
-22 -23 0
-23 629 16 0
23 -629 0
23 -16 0
-24 25 28 0
-24 26 27 28 0
24 -28 0
24 -25 -27 0
24 -25 -26 0
25 -627 -22 0
-25 627 0
-25 22 0
26 626 -835 0
-26 -626 0
-26 835 0
27 -626 -834 0
-27 626 0
-27 834 0
-28 29 0
-28 627 31 0
-28 -627 30 0
28 627 -29 -31 0
28 -627 -29 -30 0
29 628 -15 0
-29 -628 0
-29 15 0
-30 626 831 0
-30 -626 830 0
30 -626 -830 0
30 626 -831 0
-31 626 833 0
-31 -626 832 0
31 -626 -832 0
31 626 -833 0
32 627 -33 0
-32 -627 0
-32 33 0
33 -628 -34 0
-33 628 0
-33 34 0
34 629 -35 0
-34 -629 0
-34 35 0
35 -630 17 0
-35 630 0
-35 -17 0
36 626 -821 0
-36 -626 0
-36 821 0
-37 828 38 0
-37 626 38 0
-37 13 38 0
37 -38 0
37 -626 -828 -13 0
-38 39 42 0
-38 40 41 42 0
38 -42 0
38 -39 -41 0
38 -39 -40 0
39 -627 -14 0
-39 627 0
-39 14 0
40 626 -827 0
-40 -626 0
-40 827 0
41 -626 -826 0
-41 626 0
-41 826 0
-42 43 0
-42 627 45 0
-42 -627 44 0
42 627 -43 -45 0
42 -627 -43 -44 0
43 628 -34 0
-43 -628 0
-43 34 0
-44 626 823 0
-44 -626 822 0
44 -626 -822 0
44 626 -823 0
-45 626 825 0
-45 -626 824 0
45 -626 -824 0
45 626 -825 0
-46 47 52 0
-46 51 52 0
-46 -627 52 0
46 -52 0
46 627 -47 -51 0
47 628 -48 0
-47 -628 0
-47 48 0
48 629 -49 0
-48 -629 0
-48 49 0
49 630 631 -632 -50 0
-49 -630 0
-49 50 0
-49 632 0
-49 -631 0
50 -633 3 0
-50 633 0
-50 -3 0
-51 626 649 0
-51 -626 648 0
51 -626 -648 0
51 626 -649 0
-52 47 54 0
-52 627 54 0
-52 53 54 0
52 -54 0
52 -627 -47 -53 0
-53 626 647 0
-53 -626 646 0
53 -626 -646 0
53 626 -647 0
-54 49 55 60 0
-54 55 59 60 0
54 -60 0
54 -55 0
54 -49 -59 0
-55 56 0
-55 -627 58 0
-55 627 57 0
55 627 -56 -57 0
55 -627 -56 -58 0
56 -628 -48 0
-56 628 0
-56 48 0
57 -626 -644 0
-57 626 0
-57 644 0
-58 626 643 0
-58 -626 642 0
58 -626 -642 0
58 626 -643 0
59 -625 -629 8 0
-59 625 0
-59 629 0
-59 -8 0
-60 21 61 67 0
-60 61 66 67 0
60 -61 0
60 -67 0
60 -21 -66 0
-61 63 -64 0
-61 62 65 0
-61 63 65 0
-61 62 -64 0
61 -62 -63 0
61 64 -65 0
62 627 -56 0
-62 -627 0
-62 56 0
63 626 -645 0
-63 -626 0
-63 645 0
-64 628 23 0
64 -628 0
64 -23 0
65 626 627 -841 0
65 -626 627 -840 0
-65 -627 0
-65 -626 840 0
-65 626 841 0
66 626 -837 0
-66 -626 0
-66 837 0
67 -627 64 -68 0
-67 627 0
-67 -64 0
-67 68 0
-68 626 839 0
-68 -626 838 0
68 -626 -838 0
68 626 -839 0
-69 70 103 127 161 0
69 -161 0
69 -70 0
69 -127 0
69 -103 0
-70 71 93 94 0
-70 71 89 94 0
70 -94 0
70 -71 0
70 -89 -93 0
-71 797 77 0
-71 72 77 0
-71 -626 77 0
71 -77 0
71 626 -797 -72 0
72 627 -73 0
-72 -627 0
-72 73 0
73 -628 -74 0
-73 628 0
-73 74 0
74 -629 -75 0
-74 629 0
-74 75 0
75 630 -76 0
-75 -630 0
-75 76 0
76 -631 18 0
-76 631 0
-76 -18 0
-77 804 81 0
-77 626 81 0
-77 78 81 0
77 -81 0
77 -626 -804 -78 0
78 627 -79 0
-78 -627 0
-78 79 0
79 -628 -80 0
-79 628 0
-79 80 0
80 629 -75 0
-80 -629 0
-80 75 0
-81 82 85 0
-81 83 84 85 0
81 -85 0
81 -82 -84 0
81 -82 -83 0
82 -627 -79 0
-82 627 0
-82 79 0
83 626 -803 0
-83 -626 0
-83 803 0
84 -626 -802 0
-84 626 0
-84 802 0
-85 86 0
-85 627 88 0
-85 -627 87 0
85 627 -86 -88 0
85 -627 -86 -87 0
86 628 -74 0
-86 -628 0
-86 74 0
-87 626 799 0
-87 -626 798 0
87 -626 -798 0
87 626 -799 0
-88 626 801 0
-88 -626 800 0
88 -626 -800 0
88 626 -801 0
89 627 -90 0
-89 -627 0
-89 90 0
90 -628 -91 0
-90 628 0
-90 91 0
91 629 -92 0
-91 -629 0
-91 92 0
92 -630 -76 0
-92 630 0
-92 76 0
93 626 -789 0
-93 -626 0
-93 789 0
-94 796 95 0
-94 626 95 0
-94 72 95 0
94 -95 0
94 -626 -796 -72 0
-95 96 99 0
-95 97 98 99 0
95 -99 0
95 -96 -98 0
95 -96 -97 0
96 -627 -73 0
-96 627 0
-96 73 0
97 626 -795 0
-97 -626 0
-97 795 0
98 -626 -794 0
-98 626 0
-98 794 0
-99 100 0
-99 627 102 0
-99 -627 101 0
99 627 -100 -102 0
99 -627 -100 -101 0
100 628 -91 0
-100 -628 0
-100 91 0
-101 626 791 0
-101 -626 790 0
101 -626 -790 0
101 626 -791 0
-102 626 793 0
-102 -626 792 0
102 -626 -792 0
102 626 -793 0
-103 78 104 118 0
-103 104 117 118 0
103 -118 0
103 -104 0
103 -78 -117 0
-104 813 108 0
-104 105 108 0
-104 -626 108 0
104 -108 0
104 626 -813 -105 0
105 627 -106 0
-105 -627 0
-105 106 0
106 -628 -107 0
-106 628 0
-106 107 0
107 -629 -35 0
-107 629 0
-107 35 0
-108 820 109 0
-108 626 109 0
-108 32 109 0
108 -109 0
108 -626 -820 -32 0
-109 110 113 0
-109 111 112 113 0
109 -113 0
109 -110 -112 0
109 -110 -111 0
110 -627 -33 0
-110 627 0
-110 33 0
111 626 -819 0
-111 -626 0
-111 819 0
112 -626 -818 0
-112 626 0
-112 818 0
-113 114 0
-113 627 116 0
-113 -627 115 0
113 627 -114 -116 0
113 -627 -114 -115 0
114 628 -107 0
-114 -628 0
-114 107 0
-115 626 815 0
-115 -626 814 0
115 -626 -814 0
115 626 -815 0
-116 626 817 0
-116 -626 816 0
116 -626 -816 0
116 626 -817 0
117 626 -805 0
-117 -626 0
-117 805 0
-118 812 119 0
-118 626 119 0
-118 105 119 0
118 -119 0
118 -626 -812 -105 0
-119 120 123 0
-119 121 122 123 0
119 -123 0
119 -120 -122 0
119 -120 -121 0
120 -627 -106 0
-120 627 0
-120 106 0
121 626 -811 0
-121 -626 0
-121 811 0
122 -626 -810 0
-122 626 0
-122 810 0
-123 124 0
-123 627 126 0
-123 -627 125 0
123 627 -124 -126 0
123 -627 -124 -125 0
124 628 -80 0
-124 -628 0
-124 80 0
-125 626 807 0
-125 -626 806 0
125 -626 -806 0
125 626 -807 0
-126 626 809 0
-126 -626 808 0
126 -626 -808 0
126 626 -809 0
-127 128 151 152 0
-127 128 147 152 0
127 -152 0
127 -128 0
127 -147 -151 0
-128 765 135 0
-128 129 135 0
-128 -626 135 0
128 -135 0
128 626 -765 -129 0
129 627 -130 0
-129 -627 0
-129 130 0
130 -628 -131 0
-130 628 0
-130 131 0
131 -629 -132 0
-131 629 0
-131 132 0
132 630 -133 0
-132 -630 0
-132 133 0
133 631 -134 0
-133 -631 0
-133 134 0
134 -632 19 0
-134 632 0
-134 -19 0
-135 772 139 0
-135 626 139 0
-135 136 139 0
135 -139 0
135 -626 -772 -136 0
136 627 -137 0
-136 -627 0
-136 137 0
137 -628 -138 0
-137 628 0
-137 138 0
138 629 -132 0
-138 -629 0
-138 132 0
-139 140 143 0
-139 141 142 143 0
139 -143 0
139 -140 -142 0
139 -140 -141 0
140 -627 -137 0
-140 627 0
-140 137 0
141 626 -771 0
-141 -626 0
-141 771 0
142 -626 -770 0
-142 626 0
-142 770 0
-143 144 0
-143 627 146 0
-143 -627 145 0
143 627 -144 -146 0
143 -627 -144 -145 0
144 628 -131 0
-144 -628 0
-144 131 0
-145 626 767 0
-145 -626 766 0
145 -626 -766 0
145 626 -767 0
-146 626 769 0
-146 -626 768 0
146 -626 -768 0
146 626 -769 0
147 627 -148 0
-147 -627 0
-147 148 0
148 -628 -149 0
-148 628 0
-148 149 0
149 629 -150 0
-149 -629 0
-149 150 0
150 -630 -133 0
-150 630 0
-150 133 0
151 626 -757 0
-151 -626 0
-151 757 0
-152 764 153 0
-152 626 153 0
-152 129 153 0
152 -153 0
152 -626 -764 -129 0
-153 154 157 0
-153 155 156 157 0
153 -157 0
153 -154 -156 0
153 -154 -155 0
154 -627 -130 0
-154 627 0
-154 130 0
155 626 -763 0
-155 -626 0
-155 763 0
156 -626 -762 0
-156 626 0
-156 762 0
-157 158 0
-157 627 160 0
-157 -627 159 0
157 627 -158 -160 0
157 -627 -158 -159 0
158 628 -149 0
-158 -628 0
-158 149 0
-159 626 759 0
-159 -626 758 0
159 -626 -758 0
159 626 -759 0
-160 626 761 0
-160 -626 760 0
160 -626 -760 0
160 626 -761 0
-161 136 162 176 0
-161 162 175 176 0
161 -176 0
161 -162 0
161 -136 -175 0
-162 781 166 0
-162 163 166 0
-162 -626 166 0
162 -166 0
162 626 -781 -163 0
163 627 -164 0
-163 -627 0
-163 164 0
164 -628 -165 0
-164 628 0
-164 165 0
165 -629 -92 0
-165 629 0
-165 92 0
-166 788 167 0
-166 626 167 0
-166 89 167 0
166 -167 0
166 -626 -788 -89 0
-167 168 171 0
-167 169 170 171 0
167 -171 0
167 -168 -170 0
167 -168 -169 0
168 -627 -90 0
-168 627 0
-168 90 0
169 626 -787 0
-169 -626 0
-169 787 0
170 -626 -786 0
-170 626 0
-170 786 0
-171 172 0
-171 627 174 0
-171 -627 173 0
171 627 -172 -174 0
171 -627 -172 -173 0
172 628 -165 0
-172 -628 0
-172 165 0
-173 626 783 0
-173 -626 782 0
173 -626 -782 0
173 626 -783 0
-174 626 785 0
-174 -626 784 0
174 -626 -784 0
174 626 -785 0
175 626 -773 0
-175 -626 0
-175 773 0
-176 780 177 0
-176 626 177 0
-176 163 177 0
176 -177 0
176 -626 -780 -163 0
-177 178 181 0
-177 179 180 181 0
177 -181 0
177 -178 -180 0
177 -178 -179 0
178 -627 -164 0
-178 627 0
-178 164 0
179 626 -779 0
-179 -626 0
-179 779 0
180 -626 -778 0
-180 626 0
-180 778 0
-181 182 0
-181 627 184 0
-181 -627 183 0
181 627 -182 -184 0
181 -627 -182 -183 0
182 628 -138 0
-182 -628 0
-182 138 0
-183 626 775 0
-183 -626 774 0
183 -626 -774 0
183 626 -775 0
-184 626 777 0
-184 -626 776 0
184 -626 -776 0
184 626 -777 0
-185 186 220 249 265 0
185 -265 0
185 -186 0
185 -249 0
185 -220 0
-186 187 210 211 0
-186 187 206 211 0
186 -211 0
186 -187 0
186 -206 -210 0
-187 669 194 0
-187 188 194 0
-187 -626 194 0
187 -194 0
187 626 -669 -188 0
188 627 -189 0
-188 -627 0
-188 189 0
189 -628 -190 0
-189 628 0
-189 190 0
190 -629 -191 0
-190 629 0
-190 191 0
191 630 -192 0
-191 -630 0
-191 192 0
192 -631 -193 0
-192 631 0
-192 193 0
193 632 -50 0
-193 -632 0
-193 50 0
-194 676 198 0
-194 626 198 0
-194 195 198 0
194 -198 0
194 -626 -676 -195 0
195 627 -196 0
-195 -627 0
-195 196 0
196 -628 -197 0
-196 628 0
-196 197 0
197 629 -191 0
-197 -629 0
-197 191 0
-198 199 202 0
-198 200 201 202 0
198 -202 0
198 -199 -201 0
198 -199 -200 0
199 -627 -196 0
-199 627 0
-199 196 0
200 626 -675 0
-200 -626 0
-200 675 0
201 -626 -674 0
-201 626 0
-201 674 0
-202 203 0
-202 627 205 0
-202 -627 204 0
202 627 -203 -205 0
202 -627 -203 -204 0
203 628 -190 0
-203 -628 0
-203 190 0
-204 626 671 0
-204 -626 670 0
204 -626 -670 0
204 626 -671 0
-205 626 673 0
-205 -626 672 0
205 -626 -672 0
205 626 -673 0
206 627 -207 0
-206 -627 0
-206 207 0
207 -628 -208 0
-207 628 0
-207 208 0
208 629 -209 0
-208 -629 0
-208 209 0
209 -630 -192 0
-209 630 0
-209 192 0
210 626 -661 0
-210 -626 0
-210 661 0
-211 668 212 0
-211 626 212 0
-211 188 212 0
211 -212 0
211 -626 -668 -188 0
-212 213 216 0
-212 214 215 216 0
212 -216 0
212 -213 -215 0
212 -213 -214 0
213 -627 -189 0
-213 627 0
-213 189 0
214 626 -667 0
-214 -626 0
-214 667 0
215 -626 -666 0
-215 626 0
-215 666 0
-216 217 0
-216 627 219 0
-216 -627 218 0
216 627 -217 -219 0
216 -627 -217 -218 0
217 628 -208 0
-217 -628 0
-217 208 0
-218 626 663 0
-218 -626 662 0
218 -626 -662 0
218 626 -663 0
-219 626 665 0
-219 -626 664 0
219 -626 -664 0
219 626 -665 0
-220 195 221 240 0
-220 221 239 240 0
220 -240 0
220 -221 0
220 -195 -239 0
-221 685 227 0
-221 222 227 0
-221 -626 227 0
221 -227 0
221 626 -685 -222 0
222 627 -223 0
-222 -627 0
-222 223 0
223 -628 -224 0
-223 628 0
-223 224 0
224 -629 -225 0
-224 629 0
-224 225 0
225 -630 -226 0
-225 630 0
-225 226 0
226 631 -193 0
-226 -631 0
-226 193 0
-227 692 231 0
-227 626 231 0
-227 228 231 0
227 -231 0
227 -626 -692 -228 0
228 627 -229 0
-228 -627 0
-228 229 0
229 -628 -230 0
-229 628 0
-229 230 0
230 629 -225 0
-230 -629 0
-230 225 0
-231 232 235 0
-231 233 234 235 0
231 -235 0
231 -232 -234 0
231 -232 -233 0
232 -627 -229 0
-232 627 0
-232 229 0
233 626 -691 0
-233 -626 0
-233 691 0
234 -626 -690 0
-234 626 0
-234 690 0
-235 236 0
-235 627 238 0
-235 -627 237 0
235 627 -236 -238 0
235 -627 -236 -237 0
236 628 -224 0
-236 -628 0
-236 224 0
-237 626 687 0
-237 -626 686 0
237 -626 -686 0
237 626 -687 0
-238 626 689 0
-238 -626 688 0
238 -626 -688 0
238 626 -689 0
239 626 -677 0
-239 -626 0
-239 677 0
-240 684 241 0
-240 626 241 0
-240 222 241 0
240 -241 0
240 -626 -684 -222 0
-241 242 245 0
-241 243 244 245 0
241 -245 0
241 -242 -244 0
241 -242 -243 0
242 -627 -223 0
-242 627 0
-242 223 0
243 626 -683 0
-243 -626 0
-243 683 0
244 -626 -682 0
-244 626 0
-244 682 0
-245 246 0
-245 627 248 0
-245 -627 247 0
245 627 -246 -248 0
245 -627 -246 -247 0
246 628 -197 0
-246 -628 0
-246 197 0
-247 626 679 0
-247 -626 678 0
247 -626 -678 0
247 626 -679 0
-248 626 681 0
-248 -626 680 0
248 -626 -680 0
248 626 -681 0
-249 250 253 0
-249 251 252 253 0
249 -253 0
249 -250 -252 0
249 -250 -251 0
250 -627 -207 0
-250 627 0
-250 207 0
251 626 -659 0
-251 -626 0
-251 659 0
252 -626 -658 0
-252 626 0
-252 658 0
-253 254 257 0
-253 627 257 0
-253 256 257 0
253 -257 0
253 -627 -254 -256 0
254 -628 -255 0
-254 628 0
-254 255 0
255 -629 -209 0
-255 629 0
-255 209 0
-256 626 651 0
-256 -626 650 0
256 -626 -650 0
256 626 -651 0
-257 258 260 0
-257 627 260 0
-257 259 260 0
257 -260 0
257 -627 -258 -259 0
258 628 -255 0
-258 -628 0
-258 255 0
-259 626 655 0
-259 -626 654 0
259 -626 -654 0
259 626 -655 0
-260 258 262 0
-260 261 262 0
-260 -627 262 0
260 -262 0
260 627 -258 -261 0
-261 626 657 0
-261 -626 656 0
261 -626 -656 0
261 626 -657 0
-262 263 264 0
-262 254 263 0
-262 -627 263 0
262 -263 0
262 627 -254 -264 0
263 -626 -660 -206 0
-263 626 0
-263 660 0
-263 206 0
-264 626 653 0
-264 -626 652 0
264 -626 -652 0
264 626 -653 0
-265 266 299 323 351 0
265 -351 0
265 -266 0
265 -323 0
265 -299 0
-266 267 289 290 0
-266 267 285 290 0
266 -290 0
266 -267 0
266 -285 -289 0
-267 733 273 0
-267 268 273 0
-267 -626 273 0
267 -273 0
267 626 -733 -268 0
268 627 -269 0
-268 -627 0
-268 269 0
269 -628 -270 0
-269 628 0
-269 270 0
270 -629 -271 0
-270 629 0
-270 271 0
271 630 -272 0
-271 -630 0
-271 272 0
272 -631 -134 0
-272 631 0
-272 134 0
-273 740 277 0
-273 626 277 0
-273 274 277 0
273 -277 0
273 -626 -740 -274 0
274 627 -275 0
-274 -627 0
-274 275 0
275 -628 -276 0
-275 628 0
-275 276 0
276 629 -271 0
-276 -629 0
-276 271 0
-277 278 281 0
-277 279 280 281 0
277 -281 0
277 -278 -280 0
277 -278 -279 0
278 -627 -275 0
-278 627 0
-278 275 0
279 626 -739 0
-279 -626 0
-279 739 0
280 -626 -738 0
-280 626 0
-280 738 0
-281 282 0
-281 627 284 0
-281 -627 283 0
281 627 -282 -284 0
281 -627 -282 -283 0
282 628 -270 0
-282 -628 0
-282 270 0
-283 626 735 0
-283 -626 734 0
283 -626 -734 0
283 626 -735 0
-284 626 737 0
-284 -626 736 0
284 -626 -736 0
284 626 -737 0
285 627 -286 0
-285 -627 0
-285 286 0
286 -628 -287 0
-286 628 0
-286 287 0
287 629 -288 0
-287 -629 0
-287 288 0
288 -630 -272 0
-288 630 0
-288 272 0
289 626 -725 0
-289 -626 0
-289 725 0
-290 732 291 0
-290 626 291 0
-290 268 291 0
290 -291 0
290 -626 -732 -268 0
-291 292 295 0
-291 293 294 295 0
291 -295 0
291 -292 -294 0
291 -292 -293 0
292 -627 -269 0
-292 627 0
-292 269 0
293 626 -731 0
-293 -626 0
-293 731 0
294 -626 -730 0
-294 626 0
-294 730 0
-295 296 0
-295 627 298 0
-295 -627 297 0
295 627 -296 -298 0
295 -627 -296 -297 0
296 628 -287 0
-296 -628 0
-296 287 0
-297 626 727 0
-297 -626 726 0
297 -626 -726 0
297 626 -727 0
-298 626 729 0
-298 -626 728 0
298 -626 -728 0
298 626 -729 0
-299 274 300 314 0
-299 300 313 314 0
299 -314 0
299 -300 0
299 -274 -313 0
-300 749 304 0
-300 301 304 0
-300 -626 304 0
300 -304 0
300 626 -749 -301 0
301 627 -302 0
-301 -627 0
-301 302 0
302 -628 -303 0
-302 628 0
-302 303 0
303 -629 -150 0
-303 629 0
-303 150 0
-304 756 305 0
-304 626 305 0
-304 147 305 0
304 -305 0
304 -626 -756 -147 0
-305 306 309 0
-305 307 308 309 0
305 -309 0
305 -306 -308 0
305 -306 -307 0
306 -627 -148 0
-306 627 0
-306 148 0
307 626 -755 0
-307 -626 0
-307 755 0
308 -626 -754 0
-308 626 0
-308 754 0
-309 310 0
-309 627 312 0
-309 -627 311 0
309 627 -310 -312 0
309 -627 -310 -311 0
310 628 -303 0
-310 -628 0
-310 303 0
-311 626 751 0
-311 -626 750 0
311 -626 -750 0
311 626 -751 0
-312 626 753 0
-312 -626 752 0
312 -626 -752 0
312 626 -753 0
313 626 -741 0
-313 -626 0
-313 741 0
-314 748 315 0
-314 626 315 0
-314 301 315 0
314 -315 0
314 -626 -748 -301 0
-315 316 319 0
-315 317 318 319 0
315 -319 0
315 -316 -318 0
315 -316 -317 0
316 -627 -302 0
-316 627 0
-316 302 0
317 626 -747 0
-317 -626 0
-317 747 0
318 -626 -746 0
-318 626 0
-318 746 0
-319 320 0
-319 627 322 0
-319 -627 321 0
319 627 -320 -322 0
319 -627 -320 -321 0
320 628 -276 0
-320 -628 0
-320 276 0
-321 626 743 0
-321 -626 742 0
321 -626 -742 0
321 626 -743 0
-322 626 745 0
-322 -626 744 0
322 -626 -744 0
322 626 -745 0
-323 228 324 342 0
-323 324 341 342 0
323 -342 0
323 -324 0
323 -228 -341 0
-324 701 329 0
-324 325 329 0
-324 -626 329 0
324 -329 0
324 626 -701 -325 0
325 627 -326 0
-325 -627 0
-325 326 0
326 -628 -327 0
-326 628 0
-326 327 0
327 -629 -328 0
-327 629 0
-327 328 0
328 630 -226 0
-328 -630 0
-328 226 0
-329 708 333 0
-329 626 333 0
-329 330 333 0
329 -333 0
329 -626 -708 -330 0
330 627 -331 0
-330 -627 0
-330 331 0
331 -628 -332 0
-331 628 0
-331 332 0
332 629 -328 0
-332 -629 0
-332 328 0
-333 334 337 0
-333 335 336 337 0
333 -337 0
333 -334 -336 0
333 -334 -335 0
334 -627 -331 0
-334 627 0
-334 331 0
335 626 -707 0
-335 -626 0
-335 707 0
336 -626 -706 0
-336 626 0
-336 706 0
-337 338 0
-337 627 340 0
-337 -627 339 0
337 627 -338 -340 0
337 -627 -338 -339 0
338 628 -327 0
-338 -628 0
-338 327 0
-339 626 703 0
-339 -626 702 0
339 -626 -702 0
339 626 -703 0
-340 626 705 0
-340 -626 704 0
340 -626 -704 0
340 626 -705 0
341 626 -693 0
-341 -626 0
-341 693 0
-342 700 343 0
-342 626 343 0
-342 325 343 0
342 -343 0
342 -626 -700 -325 0
-343 344 347 0
-343 345 346 347 0
343 -347 0
343 -344 -346 0
343 -344 -345 0
344 -627 -326 0
-344 627 0
-344 326 0
345 626 -699 0
-345 -626 0
-345 699 0
346 -626 -698 0
-346 626 0
-346 698 0
-347 348 0
-347 627 350 0
-347 -627 349 0
347 627 -348 -350 0
347 -627 -348 -349 0
348 628 -230 0
-348 -628 0
-348 230 0
-349 626 695 0
-349 -626 694 0
349 -626 -694 0
349 626 -695 0
-350 626 697 0
-350 -626 696 0
350 -626 -696 0
350 626 -697 0
-351 330 352 366 0
-351 352 365 366 0
351 -366 0
351 -352 0
351 -330 -365 0
-352 717 356 0
-352 353 356 0
-352 -626 356 0
352 -356 0
352 626 -717 -353 0
353 627 -354 0
-353 -627 0
-353 354 0
354 -628 -355 0
-354 628 0
-354 355 0
355 -629 -288 0
-355 629 0
-355 288 0
-356 724 357 0
-356 626 357 0
-356 285 357 0
356 -357 0
356 -626 -724 -285 0
-357 358 361 0
-357 359 360 361 0
357 -361 0
357 -358 -360 0
357 -358 -359 0
358 -627 -286 0
-358 627 0
-358 286 0
359 626 -723 0
-359 -626 0
-359 723 0
360 -626 -722 0
-360 626 0
-360 722 0
-361 362 0
-361 627 364 0
-361 -627 363 0
361 627 -362 -364 0
361 -627 -362 -363 0
362 628 -355 0
-362 -628 0
-362 355 0
-363 626 719 0
-363 -626 718 0
363 -626 -718 0
363 626 -719 0
-364 626 721 0
-364 -626 720 0
364 -626 -720 0
364 626 -721 0
365 626 -709 0
-365 -626 0
-365 709 0
-366 716 367 0
-366 626 367 0
-366 353 367 0
366 -367 0
366 -626 -716 -353 0
-367 368 371 0
-367 369 370 371 0
367 -371 0
367 -368 -370 0
367 -368 -369 0
368 -627 -354 0
-368 627 0
-368 354 0
369 626 -715 0
-369 -626 0
-369 715 0
370 -626 -714 0
-370 626 0
-370 714 0
-371 372 0
-371 627 374 0
-371 -627 373 0
371 627 -372 -374 0
371 -627 -372 -373 0
372 628 -332 0
-372 -628 0
-372 332 0
-373 626 711 0
-373 -626 710 0
373 -626 -710 0
373 626 -711 0
-374 626 713 0
-374 -626 712 0
374 -626 -712 0
374 626 -713 0
-375 376 401 415 495 0
375 -495 0
375 -376 0
375 -415 0
375 -401 0
-376 36 377 396 0
-376 377 392 396 0
376 -396 0
376 -377 0
376 -36 -392 0
-377 829 384 0
-377 378 384 0
-377 -626 384 0
377 -384 0
377 626 -829 -378 0
378 627 -379 0
-378 -627 0
-378 379 0
379 -628 -380 0
-379 628 0
-379 380 0
380 -629 381 0
-380 629 0
-380 -381 0
-381 630 382 0
381 -630 0
381 -382 0
-382 631 383 0
382 -631 0
382 -383 0
-383 632 633 4 0
383 -4 0
383 -633 0
383 -632 0
-384 836 388 0
-384 626 388 0
-384 385 388 0
384 -388 0
384 -626 -836 -385 0
385 627 -386 0
-385 -627 0
-385 386 0
386 -628 387 0
-386 628 0
-386 -387 0
-387 629 381 0
387 -629 0
387 -381 0
-388 389 390 0
-388 26 27 390 0
388 -390 0
388 -27 -389 0
388 -26 -389 0
389 -627 -386 0
-389 627 0
-389 386 0
-390 391 0
-390 627 31 0
-390 -627 30 0
390 627 -31 -391 0
390 -627 -30 -391 0
391 628 -380 0
-391 -628 0
-391 380 0
392 627 -393 0
-392 -627 0
-392 393 0
393 -628 -394 0
-393 628 0
-393 394 0
394 629 -395 0
-394 -629 0
-394 395 0
395 -630 382 0
-395 630 0
-395 -382 0
-396 828 397 0
-396 626 397 0
-396 378 397 0
396 -397 0
396 -626 -828 -378 0
-397 398 399 0
-397 40 41 399 0
397 -399 0
397 -41 -398 0
397 -40 -398 0
398 -627 -379 0
-398 627 0
-398 379 0
-399 400 0
-399 627 45 0
-399 -627 44 0
399 627 -45 -400 0
399 -627 -44 -400 0
400 628 -394 0
-400 -628 0
-400 394 0
-401 402 406 0
-401 51 406 0
-401 -627 406 0
401 -406 0
401 627 -51 -402 0
402 628 -403 0
-402 -628 0
-402 403 0
403 629 -404 0
-403 -629 0
-403 404 0
404 630 631 -632 -405 0
-404 -630 0
-404 405 0
-404 632 0
-404 -631 0
405 -633 4 0
-405 633 0
-405 -4 0
-406 627 407 0
-406 53 407 0
-406 402 407 0
406 -407 0
406 -627 -53 -402 0
-407 59 408 410 0
-407 404 408 410 0
407 -410 0
407 -408 0
407 -59 -404 0
-408 409 0
-408 -627 58 0
-408 627 57 0
408 627 -57 -409 0
408 -627 -58 -409 0
409 -628 -403 0
-409 628 0
-409 403 0
-410 385 411 414 0
-410 66 411 414 0
410 -411 0
410 -414 0
410 -66 -385 0
-411 65 412 0
-411 63 -413 0
-411 412 -413 0
-411 63 65 0
411 -63 -412 0
411 -65 413 0
412 627 -409 0
-412 -627 0
-412 409 0
-413 628 387 0
413 -628 0
413 -387 0
414 -627 -68 413 0
-414 627 0
-414 68 0
-414 -413 0
-415 416 440 455 480 0
415 -480 0
415 -416 0
415 -455 0
415 -440 0
-416 93 417 435 0
-416 417 431 435 0
416 -435 0
416 -417 0
416 -93 -431 0
-417 797 423 0
-417 418 423 0
-417 -626 423 0
417 -423 0
417 626 -797 -418 0
418 627 -419 0
-418 -627 0
-418 419 0
419 -628 -420 0
-419 628 0
-419 420 0
420 -629 -421 0
-420 629 0
-420 421 0
421 630 -422 0
-421 -630 0
-421 422 0
422 -631 383 0
-422 631 0
-422 -383 0
-423 804 427 0
-423 626 427 0
-423 424 427 0
423 -427 0
423 -626 -804 -424 0
424 627 -425 0
-424 -627 0
-424 425 0
425 -628 -426 0
-425 628 0
-425 426 0
426 629 -421 0
-426 -629 0
-426 421 0
-427 428 429 0
-427 83 84 429 0
427 -429 0
427 -84 -428 0
427 -83 -428 0
428 -627 -425 0
-428 627 0
-428 425 0
-429 430 0
-429 627 88 0
-429 -627 87 0
429 627 -88 -430 0
429 -627 -87 -430 0
430 628 -420 0
-430 -628 0
-430 420 0
431 627 -432 0
-431 -627 0
-431 432 0
432 -628 -433 0
-432 628 0
-432 433 0
433 629 -434 0
-433 -629 0
-433 434 0
434 -630 -422 0
-434 630 0
-434 422 0
-435 796 436 0
-435 626 436 0
-435 418 436 0
435 -436 0
435 -626 -796 -418 0
-436 437 438 0
-436 97 98 438 0
436 -438 0
436 -98 -437 0
436 -97 -437 0
437 -627 -419 0
-437 627 0
-437 419 0
-438 439 0
-438 627 102 0
-438 -627 101 0
438 627 -102 -439 0
438 -627 -101 -439 0
439 628 -433 0
-439 -628 0
-439 433 0
-440 117 441 450 0
-440 424 441 450 0
440 -450 0
440 -441 0
440 -117 -424 0
-441 813 445 0
-441 442 445 0
-441 -626 445 0
441 -445 0
441 626 -813 -442 0
442 627 -443 0
-442 -627 0
-442 443 0
443 -628 -444 0
-443 628 0
-443 444 0
444 -629 -395 0
-444 629 0
-444 395 0
-445 820 446 0
-445 626 446 0
-445 392 446 0
445 -446 0
445 -626 -820 -392 0
-446 447 448 0
-446 111 112 448 0
446 -448 0
446 -112 -447 0
446 -111 -447 0
447 -627 -393 0
-447 627 0
-447 393 0
-448 449 0
-448 627 116 0
-448 -627 115 0
448 627 -116 -449 0
448 -627 -115 -449 0
449 628 -444 0
-449 -628 0
-449 444 0
-450 812 451 0
-450 626 451 0
-450 442 451 0
450 -451 0
450 -626 -812 -442 0
-451 452 453 0
-451 121 122 453 0
451 -453 0
451 -122 -452 0
451 -121 -452 0
452 -627 -443 0
-452 627 0
-452 443 0
-453 454 0
-453 627 126 0
-453 -627 125 0
453 627 -126 -454 0
453 -627 -125 -454 0
454 628 -426 0
-454 -628 0
-454 426 0
-455 151 456 475 0
-455 456 471 475 0
455 -475 0
455 -456 0
455 -151 -471 0
-456 765 463 0
-456 457 463 0
-456 -626 463 0
456 -463 0
456 626 -765 -457 0
457 627 -458 0
-457 -627 0
-457 458 0
458 -628 -459 0
-458 628 0
-458 459 0
459 -629 -460 0
-459 629 0
-459 460 0
460 630 -461 0
-460 -630 0
-460 461 0
461 631 -462 0
-461 -631 0
-461 462 0
462 -632 633 4 0
-462 632 0
-462 -633 0
-462 -4 0
-463 772 467 0
-463 626 467 0
-463 464 467 0
463 -467 0
463 -626 -772 -464 0
464 627 -465 0
-464 -627 0
-464 465 0
465 -628 -466 0
-465 628 0
-465 466 0
466 629 -460 0
-466 -629 0
-466 460 0
-467 468 469 0
-467 141 142 469 0
467 -469 0
467 -142 -468 0
467 -141 -468 0
468 -627 -465 0
-468 627 0
-468 465 0
-469 470 0
-469 627 146 0
-469 -627 145 0
469 627 -146 -470 0
469 -627 -145 -470 0
470 628 -459 0
-470 -628 0
-470 459 0
471 627 -472 0
-471 -627 0
-471 472 0
472 -628 -473 0
-472 628 0
-472 473 0
473 629 -474 0
-473 -629 0
-473 474 0
474 -630 -461 0
-474 630 0
-474 461 0
-475 764 476 0
-475 626 476 0
-475 457 476 0
475 -476 0
475 -626 -764 -457 0
-476 477 478 0
-476 155 156 478 0
476 -478 0
476 -156 -477 0
476 -155 -477 0
477 -627 -458 0
-477 627 0
-477 458 0
-478 479 0
-478 627 160 0
-478 -627 159 0
478 627 -160 -479 0
478 -627 -159 -479 0
479 628 -473 0
-479 -628 0
-479 473 0
-480 175 481 490 0
-480 464 481 490 0
480 -490 0
480 -481 0
480 -175 -464 0
-481 781 485 0
-481 482 485 0
-481 -626 485 0
481 -485 0
481 626 -781 -482 0
482 627 -483 0
-482 -627 0
-482 483 0
483 -628 -484 0
-483 628 0
-483 484 0
484 -629 -434 0
-484 629 0
-484 434 0
-485 788 486 0
-485 626 486 0
-485 431 486 0
485 -486 0
485 -626 -788 -431 0
-486 487 488 0
-486 169 170 488 0
486 -488 0
486 -170 -487 0
486 -169 -487 0
487 -627 -432 0
-487 627 0
-487 432 0
-488 489 0
-488 627 174 0
-488 -627 173 0
488 627 -174 -489 0
488 -627 -173 -489 0
489 628 -484 0
-489 -628 0
-489 484 0
-490 780 491 0
-490 626 491 0
-490 482 491 0
490 -491 0
490 -626 -780 -482 0
-491 492 493 0
-491 179 180 493 0
491 -493 0
491 -180 -492 0
491 -179 -492 0
492 -627 -483 0
-492 627 0
-492 483 0
-493 494 0
-493 627 184 0
-493 -627 183 0
493 627 -184 -494 0
493 -627 -183 -494 0
494 628 -466 0
-494 -628 0
-494 466 0
-495 496 521 541 551 0
495 -551 0
495 -496 0
495 -541 0
495 -521 0
-496 210 497 516 0
-496 497 512 516 0
496 -516 0
496 -497 0
496 -210 -512 0
-497 669 504 0
-497 498 504 0
-497 -626 504 0
497 -504 0
497 626 -669 -498 0
498 627 -499 0
-498 -627 0
-498 499 0
499 -628 -500 0
-499 628 0
-499 500 0
500 -629 -501 0
-500 629 0
-500 501 0
501 630 -502 0
-501 -630 0
-501 502 0
502 -631 -503 0
-502 631 0
-502 503 0
503 632 -633 4 0
-503 -4 0
-503 633 0
-503 -632 0
-504 676 508 0
-504 626 508 0
-504 505 508 0
504 -508 0
504 -626 -676 -505 0
505 627 -506 0
-505 -627 0
-505 506 0
506 -628 -507 0
-506 628 0
-506 507 0
507 629 -501 0
-507 -629 0
-507 501 0
-508 509 510 0
-508 200 201 510 0
508 -510 0
508 -201 -509 0
508 -200 -509 0
509 -627 -506 0
-509 627 0
-509 506 0
-510 511 0
-510 627 205 0
-510 -627 204 0
510 627 -205 -511 0
510 -627 -204 -511 0
511 628 -500 0
-511 -628 0
-511 500 0
512 627 -513 0
-512 -627 0
-512 513 0
513 -628 -514 0
-513 628 0
-513 514 0
514 629 -515 0
-514 -629 0
-514 515 0
515 -630 -502 0
-515 630 0
-515 502 0
-516 668 517 0
-516 626 517 0
-516 498 517 0
516 -517 0
516 -626 -668 -498 0
-517 518 519 0
-517 214 215 519 0
517 -519 0
517 -215 -518 0
517 -214 -518 0
518 -627 -499 0
-518 627 0
-518 499 0
-519 520 0
-519 627 219 0
-519 -627 218 0
519 627 -219 -520 0
519 -627 -218 -520 0
520 628 -514 0
-520 -628 0
-520 514 0
-521 239 522 536 0
-521 505 522 536 0
521 -536 0
521 -522 0
521 -239 -505 0
-522 685 528 0
-522 523 528 0
-522 -626 528 0
522 -528 0
522 626 -685 -523 0
523 627 -524 0
-523 -627 0
-523 524 0
524 -628 -525 0
-524 628 0
-524 525 0
525 -629 -526 0
-525 629 0
-525 526 0
526 -630 -527 0
-526 630 0
-526 527 0
527 631 -503 0
-527 -631 0
-527 503 0
-528 692 532 0
-528 626 532 0
-528 529 532 0
528 -532 0
528 -626 -692 -529 0
529 627 -530 0
-529 -627 0
-529 530 0
530 -628 -531 0
-530 628 0
-530 531 0
531 629 -526 0
-531 -629 0
-531 526 0
-532 533 534 0
-532 233 234 534 0
532 -534 0
532 -234 -533 0
532 -233 -533 0
533 -627 -530 0
-533 627 0
-533 530 0
-534 535 0
-534 627 238 0
-534 -627 237 0
534 627 -238 -535 0
534 -627 -237 -535 0
535 628 -525 0
-535 -628 0
-535 525 0
-536 684 537 0
-536 626 537 0
-536 523 537 0
536 -537 0
536 -626 -684 -523 0
-537 538 539 0
-537 243 244 539 0
537 -539 0
537 -244 -538 0
537 -243 -538 0
538 -627 -524 0
-538 627 0
-538 524 0
-539 540 0
-539 627 248 0
-539 -627 247 0
539 627 -248 -540 0
539 -627 -247 -540 0
540 628 -507 0
-540 -628 0
-540 507 0
-541 542 543 0
-541 251 252 543 0
541 -543 0
541 -252 -542 0
541 -251 -542 0
542 -627 -513 0
-542 627 0
-542 513 0
-543 627 546 0
-543 256 546 0
-543 544 546 0
543 -546 0
543 -627 -256 -544 0
544 -628 -545 0
-544 628 0
-544 545 0
545 -629 -515 0
-545 629 0
-545 515 0
-546 627 548 0
-546 259 548 0
-546 547 548 0
546 -548 0
546 -627 -259 -547 0
547 628 -545 0
-547 -628 0
-547 545 0
-548 547 549 0
-548 261 549 0
-548 -627 549 0
548 -549 0
548 627 -261 -547 0
-549 544 550 0
-549 -627 550 0
-549 264 550 0
549 -550 0
549 627 -264 -544 0
550 -626 -660 -512 0
-550 626 0
-550 660 0
-550 512 0
-551 552 576 591 610 0
551 -610 0
551 -552 0
551 -591 0
551 -576 0
-552 289 553 571 0
-552 553 567 571 0
552 -571 0
552 -553 0
552 -289 -567 0
-553 733 559 0
-553 554 559 0
-553 -626 559 0
553 -559 0
553 626 -733 -554 0
554 627 -555 0
-554 -627 0
-554 555 0
555 -628 -556 0
-555 628 0
-555 556 0
556 -629 -557 0
-556 629 0
-556 557 0
557 630 -558 0
-557 -630 0
-557 558 0
558 -631 -462 0
-558 631 0
-558 462 0
-559 740 563 0
-559 626 563 0
-559 560 563 0
559 -563 0
559 -626 -740 -560 0
560 627 -561 0
-560 -627 0
-560 561 0
561 -628 -562 0
-561 628 0
-561 562 0
562 629 -557 0
-562 -629 0
-562 557 0
-563 564 565 0
-563 279 280 565 0
563 -565 0
563 -280 -564 0
563 -279 -564 0
564 -627 -561 0
-564 627 0
-564 561 0
-565 566 0
-565 627 284 0
-565 -627 283 0
565 627 -284 -566 0
565 -627 -283 -566 0
566 628 -556 0
-566 -628 0
-566 556 0
567 627 -568 0
-567 -627 0
-567 568 0
568 -628 -569 0
-568 628 0
-568 569 0
569 629 -570 0
-569 -629 0
-569 570 0
570 -630 -558 0
-570 630 0
-570 558 0
-571 732 572 0
-571 626 572 0
-571 554 572 0
571 -572 0
571 -626 -732 -554 0
-572 573 574 0
-572 293 294 574 0
572 -574 0
572 -294 -573 0
572 -293 -573 0
573 -627 -555 0
-573 627 0
-573 555 0
-574 575 0
-574 627 298 0
-574 -627 297 0
574 627 -298 -575 0
574 -627 -297 -575 0
575 628 -569 0
-575 -628 0
-575 569 0
-576 313 577 586 0
-576 560 577 586 0
576 -586 0
576 -577 0
576 -313 -560 0
-577 749 581 0
-577 578 581 0
-577 -626 581 0
577 -581 0
577 626 -749 -578 0
578 627 -579 0
-578 -627 0
-578 579 0
579 -628 -580 0
-579 628 0
-579 580 0
580 -629 -474 0
-580 629 0
-580 474 0
-581 756 582 0
-581 626 582 0
-581 471 582 0
581 -582 0
581 -626 -756 -471 0
-582 583 584 0
-582 307 308 584 0
582 -584 0
582 -308 -583 0
582 -307 -583 0
583 -627 -472 0
-583 627 0
-583 472 0
-584 585 0
-584 627 312 0
-584 -627 311 0
584 627 -312 -585 0
584 -627 -311 -585 0
585 628 -580 0
-585 -628 0
-585 580 0
-586 748 587 0
-586 626 587 0
-586 578 587 0
586 -587 0
586 -626 -748 -578 0
-587 588 589 0
-587 317 318 589 0
587 -589 0
587 -318 -588 0
587 -317 -588 0
588 -627 -579 0
-588 627 0
-588 579 0
-589 590 0
-589 627 322 0
-589 -627 321 0
589 627 -322 -590 0
589 -627 -321 -590 0
590 628 -562 0
-590 -628 0
-590 562 0
-591 341 592 605 0
-591 529 592 605 0
591 -605 0
591 -592 0
591 -341 -529 0
-592 701 597 0
-592 593 597 0
-592 -626 597 0
592 -597 0
592 626 -701 -593 0
593 627 -594 0
-593 -627 0
-593 594 0
594 -628 -595 0
-594 628 0
-594 595 0
595 -629 -596 0
-595 629 0
-595 596 0
596 630 -527 0
-596 -630 0
-596 527 0
-597 708 601 0
-597 626 601 0
-597 598 601 0
597 -601 0
597 -626 -708 -598 0
598 627 -599 0
-598 -627 0
-598 599 0
599 -628 -600 0
-599 628 0
-599 600 0
600 629 -596 0
-600 -629 0
-600 596 0
-601 602 603 0
-601 335 336 603 0
601 -603 0
601 -336 -602 0
601 -335 -602 0
602 -627 -599 0
-602 627 0
-602 599 0
-603 604 0
-603 627 340 0
-603 -627 339 0
603 627 -340 -604 0
603 -627 -339 -604 0
604 628 -595 0
-604 -628 0
-604 595 0
-605 700 606 0
-605 626 606 0
-605 593 606 0
605 -606 0
605 -626 -700 -593 0
-606 607 608 0
-606 345 346 608 0
606 -608 0
606 -346 -607 0
606 -345 -607 0
607 -627 -594 0
-607 627 0
-607 594 0
-608 609 0
-608 627 350 0
-608 -627 349 0
608 627 -350 -609 0
608 -627 -349 -609 0
609 628 -531 0
-609 -628 0
-609 531 0
-610 365 611 620 0
-610 598 611 620 0
610 -620 0
610 -611 0
610 -365 -598 0
-611 717 615 0
-611 612 615 0
-611 -626 615 0
611 -615 0
611 626 -717 -612 0
612 627 -613 0
-612 -627 0
-612 613 0
613 -628 -614 0
-613 628 0
-613 614 0
614 -629 -570 0
-614 629 0
-614 570 0
-615 724 616 0
-615 626 616 0
-615 567 616 0
615 -616 0
615 -626 -724 -567 0
-616 617 618 0
-616 359 360 618 0
616 -618 0
616 -360 -617 0
616 -359 -617 0
617 -627 -568 0
-617 627 0
-617 568 0
-618 619 0
-618 627 364 0
-618 -627 363 0
618 627 -364 -619 0
618 -627 -363 -619 0
619 628 -614 0
-619 -628 0
-619 614 0
-620 716 621 0
-620 626 621 0
-620 612 621 0
620 -621 0
620 -626 -716 -612 0
-621 622 623 0
-621 369 370 623 0
621 -623 0
621 -370 -622 0
621 -369 -622 0
622 -627 -613 0
-622 627 0
-622 613 0
-623 624 0
-623 627 374 0
-623 -627 373 0
623 627 -374 -624 0
623 -627 -373 -624 0
624 628 -600 0
-624 -628 0
-624 600 0
-842 0
2 0

